p cnf 100 400
d 1 2
d 2 2
d 3 2
d 4 2
d 5 2
d 6 2
d 7 2
d 8 2
d 9 2
d 10 2
d 11 2
d 12 2
d 13 2
d 14 2
d 15 2
d 16 2
d 17 2
d 18 2
d 19 2
d 20 2
d 21 2
d 22 2
d 23 2
d 24 2
d 25 2
d 26 2
d 27 2
d 28 2
d 29 2
d 30 2
d 31 2
d 32 2
d 33 2
d 34 2
d 35 2
d 36 2
d 37 2
d 38 2
d 39 2
d 40 2
d 41 2
d 42 2
d 43 2
d 44 2
d 45 2
d 46 2
d 47 2
d 48 2
d 49 2
d 50 2
d 51 2
d 52 2
d 53 2
d 54 2
d 55 2
d 56 2
d 57 2
d 58 2
d 59 2
d 60 2
d 61 2
d 62 2
d 63 2
d 64 2
d 65 2
d 66 2
d 67 2
d 68 2
d 69 2
d 70 2
d 71 2
d 72 2
d 73 2
d 74 2
d 75 2
d 76 2
d 77 2
d 78 2
d 79 2
d 80 2
d 81 2
d 82 2
d 83 2
d 84 2
d 85 2
d 86 2
d 87 2
d 88 2
d 89 2
d 90 2
d 91 2
d 92 2
d 93 2
d 94 2
d 95 2
d 96 2
d 97 2
d 98 2
d 99 2
d 100 2
1=1 3=1 
2=1 3=1 
3=1 3=1 
4=1 3=1 
5=1 3=1 
6=1 3=1 
7=1 3=1 
8=1 3=1 
9=1 3=1 
10=1 3=1 
11=1 3=1 
12=1 3=1 
13=1 3=1 
14=1 3=1 
15=1 3=1 
16=1 3=1 
17=1 3=1 
18=1 3=1 
19=1 3=1 
20=1 3=1 
21=1 3=1 
22=1 3=1 
23=1 3=1 
24=1 3=1 
25=1 3=1 
26=1 3=1 
27=1 3=1 
28=1 3=1 
29=1 3=1 
30=1 3=1 
31=1 3=1 
32=1 3=1 
33=1 3=1 
34=1 3=1 
35=1 3=1 
36=1 3=1 
37=1 3=1 
38=1 3=1 
39=1 3=1 
40=1 3=1 
41=1 3=1 
42=1 3=1 
43=1 3=1 
44=1 3=1 
45=1 3=1 
46=1 3=1 
47=1 3=1 
48=1 3=1 
49=1 3=1 
50=1 3=1 
51=1 3=1 
52=1 3=1 
53=1 3=1 
54=1 3=1 
55=1 3=1 
56=1 3=1 
57=1 3=1 
58=1 3=1 
59=1 3=1 
60=1 3=1 
61=1 3=1 
62=1 3=1 
63=1 3=1 
64=1 3=1 
65=1 3=1 
66=1 3=1 
67=1 3=1 
68=1 3=1 
69=1 3=1 
70=1 3=1 
71=1 3=1 
72=1 3=1 
73=1 3=1 
74=1 3=1 
75=1 3=1 
76=1 3=1 
77=1 3=1 
78=1 3=1 
79=1 3=1 
80=1 3=1 
81=1 3=1 
82=1 3=1 
83=1 3=1 
84=1 3=1 
85=1 3=1 
86=1 3=1 
87=1 3=1 
88=1 3=1 
89=1 3=1 
90=1 3=1 
91=1 3=1 
92=1 3=1 
93=1 3=1 
94=1 3=1 
95=1 3=1 
96=1 3=1 
97=1 3=1 
98=1 3=1 
99=1 3=1 
100=1 3=1 
42=1 52=1 58=1 
84=1 87=1 12=1 
20=1 34=1 84=1 
27=1 71=1 40=1 
18=1 32=1 63=1 
39=1 58=1 91=1 
19=1 95=1 5=1 
71=1 1=1 11=1 
89=1 40=1 46=1 
52=1 69=1 60=1 
41=1 16=1 86=1 
58=1 51=1 56=1 
71=1 82=1 89=1 
41=1 63=1 99=1 
62=1 22=1 88=1 
12=1 84=1 29=1 
36=1 77=1 42=1 
40=1 15=1 35=1 
69=1 83=1 58=1 
91=1 35=1 100=1 
46=1 2=1 89=1 
1=1 68=1 61=1 
66=1 77=1 26=1 
34=1 90=1 77=1 
49=1 18=1 32=1 
58=1 32=1 9=1 
41=1 96=1 90=1 
73=1 60=1 86=1 
60=1 79=1 87=1 
99=1 74=1 70=1 
37=1 33=1 38=1 
39=1 2=1 38=1 
94=1 50=1 11=1 
90=1 58=1 22=1 
74=1 82=1 88=1 
4=1 30=1 43=1 
29=1 97=1 19=1 
25=1 48=1 69=1 
12=1 80=1 25=1 
64=1 74=1 49=1 
49=1 37=1 41=1 
97=1 12=1 3=1 
30=1 46=1 4=1 
40=1 71=1 84=1 
72=1 97=1 44=1 
58=1 49=1 22=1 
72=1 62=1 66=1 
66=1 94=1 76=1 
77=1 11=1 86=1 
94=1 45=1 54=1 
38=1 32=1 4=1 
79=1 26=1 62=1 
7=1 37=1 42=1 
48=1 27=1 64=1 
56=1 21=1 50=1 
92=1 36=1 26=1 
79=1 69=1 100=1 
94=1 61=1 58=1 
94=1 71=1 67=1 
84=1 47=1 26=1 
81=1 36=1 43=1 
10=1 68=1 76=1 
61=1 25=1 51=1 
27=1 42=1 16=1 
87=1 35=1 7=1 
82=1 81=1 7=1 
29=1 96=1 47=1 
67=1 92=1 83=1 
28=1 37=1 10=1 
81=1 56=1 62=1 
62=1 11=1 12=1 
10=1 80=1 78=1 
76=1 94=1 70=1 
45=1 23=1 40=1 
46=1 34=1 20=1 
90=1 100=1 63=1 
37=1 42=1 81=1 
18=1 6=1 25=1 
49=1 58=1 86=1 
2=1 35=1 94=1 
83=1 39=1 87=1 
45=1 76=1 91=1 
57=1 64=1 23=1 
41=1 9=1 46=1 
98=1 76=1 35=1 
42=1 5=1 2=1 
84=1 66=1 36=1 
20=1 67=1 57=1 
23=1 12=1 51=1 
29=1 8=1 85=1 
78=1 62=1 58=1 
76=1 13=1 52=1 
48=1 43=1 6=1 
55=1 53=1 15=1 
79=1 3=1 52=1 
80=1 65=1 62=1 
8=1 66=1 30=1 
72=1 40=1 43=1 
70=1 29=1 19=1 
76=1 38=1 83=1 
69=1 85=1 30=1 
14=1 76=1 96=1 
57=1 84=1 19=1 
92=1 61=1 86=1 
93=1 23=1 33=1 
30=1 80=1 83=1 
100=1 64=1 48=1 
94=1 44=1 90=1 
60=1 36=1 46=1 
68=1 34=1 96=1 
85=1 72=1 16=1 
4=1 55=1 52=1 
27=1 25=1 64=1 
97=1 26=1 51=1 
74=1 51=1 60=1 
77=1 27=1 59=1 
54=1 57=1 81=1 
65=1 56=1 29=1 
7=1 94=1 9=1 
56=1 13=1 93=1 
56=1 67=1 73=1 
24=1 91=1 89=1 
91=1 30=1 94=1 
17=1 36=1 85=1 
53=1 30=1 49=1 
89=1 46=1 87=1 
36=1 95=1 94=1 
48=1 88=1 34=1 
88=1 81=1 59=1 
18=1 8=1 79=1 
72=1 13=1 26=1 
87=1 12=1 86=1 
16=1 93=1 62=1 
84=1 27=1 23=1 
85=1 47=1 43=1 
52=1 44=1 84=1 
14=1 81=1 3=1 
86=1 50=1 25=1 
7=1 64=1 28=1 
69=1 83=1 55=1 
92=1 91=1 22=1 
7=1 96=1 65=1 
4=1 20=1 32=1 
68=1 56=1 23=1 
22=1 46=1 58=1 
80=1 11=1 87=1 
44=1 19=1 31=1 
41=1 37=1 38=1 
56=1 9=1 89=1 
46=1 22=1 65=1 
96=1 31=1 14=1 
37=1 13=1 100=1 
42=1 76=1 100=1 
1=1 70=1 10=1 
16=1 13=1 35=1 
6=1 25=1 44=1 
47=1 5=1 53=1 
48=1 74=1 43=1 
30=1 8=1 71=1 
30=1 88=1 48=1 
89=1 53=1 15=1 
58=1 49=1 19=1 
61=1 96=1 47=1 
73=1 92=1 18=1 
49=1 4=1 93=1 
11=1 56=1 47=1 
58=1 83=1 18=1 
62=1 71=1 17=1 
100=1 48=1 72=1 
56=1 64=1 61=1 
62=1 41=1 85=1 
90=1 43=1 52=1 
78=1 94=1 22=1 
69=1 50=1 63=1 
33=1 46=1 29=1 
55=1 28=1 10=1 
86=1 5=1 76=1 
92=1 21=1 52=1 
47=1 63=1 88=1 
21=1 95=1 19=1 
23=1 65=1 72=1 
13=1 78=1 37=1 
73=1 5=1 65=1 
87=1 80=1 58=1 
25=1 42=1 96=1 
95=1 36=1 72=1 
37=1 17=1 54=1 
18=1 33=1 71=1 
82=1 7=1 57=1 
83=1 94=1 100=1 
35=1 64=1 57=1 
29=1 71=1 59=1 
50=1 2=1 72=1 
35=1 88=1 3=1 
68=1 56=1 42=1 
65=1 63=1 91=1 
18=1 40=1 85=1 
55=1 74=1 9=1 
42=1 88=1 97=1 
95=1 27=1 90=1 
30=1 31=1 84=1 
72=1 65=1 82=1 
5=1 79=1 76=1 
54=1 27=1 42=1 
13=1 71=1 53=1 
59=1 53=1 88=1 
66=1 85=1 9=1 
88=1 85=1 26=1 
51=1 26=1 24=1 
100=1 6=1 28=1 
82=1 92=1 79=1 
75=1 90=1 26=1 
77=1 63=1 79=1 
72=1 71=1 58=1 
68=1 82=1 80=1 
83=1 47=1 25=1 
73=1 45=1 46=1 
12=1 57=1 88=1 
95=1 67=1 78=1 
62=1 42=1 66=1 
69=1 48=1 77=1 
49=1 96=1 85=1 
40=1 50=1 19=1 
92=1 10=1 59=1 
70=1 74=1 59=1 
64=1 69=1 24=1 
39=1 95=1 69=1 
26=1 76=1 44=1 
99=1 26=1 70=1 
30=1 37=1 52=1 
7=1 96=1 5=1 
13=1 87=1 49=1 
24=1 94=1 64=1 
67=1 48=1 70=1 
55=1 59=1 42=1 
19=1 92=1 22=1 
7=1 77=1 32=1 
14=1 85=1 57=1 
96=1 10=1 66=1 
60=1 30=1 15=1 
33=1 23=1 51=1 
24=1 30=1 5=1 
29=1 19=1 25=1 
61=1 97=1 14=1 
52=1 86=1 96=1 
56=1 37=1 3=1 
74=1 47=1 78=1 
68=1 69=1 71=1 
13=1 16=1 4=1 
75=1 54=1 88=1 
12=1 28=1 20=1 
86=1 9=1 1=1 
34=1 96=1 58=1 
98=1 48=1 32=1 
42=1 57=1 18=1 
48=1 86=1 80=1 
5=1 3=1 48=1 
3=1 74=1 35=1 
63=1 54=1 97=1 
64=1 42=1 36=1 
64=1 91=1 10=1 
6=1 86=1 31=1 
62=1 66=1 30=1 
19=1 35=1 5=1 
8=1 72=1 39=1 
12=1 94=1 3=1 
72=1 69=1 20=1 
42=1 83=1 20=1 
10=1 59=1 61=1 
79=1 34=1 21=1 
61=1 74=1 33=1 
61=1 35=1 13=1 
31=1 87=1 12=1 
28=1 48=1 68=1 
100=1 80=1 48=1 
5=1 83=1 66=1 
57=1 23=1 7=1 
97=1 40=1 54=1 
92=1 27=1 19=1 
99=1 40=1 3=1 
29=1 46=1 88=1 
77=1 90=1 87=1 
85=1 37=1 69=1 
30=1 76=1 99=1 
50=1 64=1 78=1 
79=1 77=1 68=1 
39=1 60=1 95=1 
28=1 80=1 7=1 
58=1 60=1 44=1 
79=1 58=1 85=1 
12=1 92=1 42=1 
57=1 54=1 12=1 
66=1 79=1 7=1 
97=1 24=1 1=1 
17=1 11=1 24=1 
12=1 13=1 28=1 
13=1 87=1 3=1 
66=1 41=1 17=1 
32=1 14=1 72=1 
74=1 44=1 17=1 
83=1 7=1 82=1 
53=1 21=1 11=1 
41=1 95=1 23=1 
79=1 27=1 61=1 
58=1 89=1 21=1 
72=1 84=1 2=1 
63=1 10=1 45=1 
58=1 52=1 17=1 
14=1 80=1 90=1 
89=1 77=1 100=1 
33=1 52=1 1=1 
32=1 58=1 98=1 
64=1 90=1 58=1 
41=1 4=1 62=1 
63=1 92=1 30=1 
87=1 66=1 29=1 
94=1 32=1 4=1 
9=1 87=1 86=1 
8=1 66=1 49=1 
9=1 32=1 53=1 
47=1 26=1 81=1 
33=1 17=1 81=1 
97=1 91=1 40=1 
79=1 5=1 62=1 
75=1 67=1 74=1 
19=1 9=1 87=1 
50=1 67=1 34=1 
90=1 36=1 13=1 
59=1 26=1 38=1 
67=1 9=1 22=1 
3=1 57=1 87=1 
52=1 61=1 6=1 
16=1 76=1 26=1 
30=1 7=1 19=1 
16=1 54=1 4=1 
2=1 43=1 33=1 
15=1 97=1 26=1 
52=1 17=1 97=1 
88=1 37=1 29=1 
88=1 38=1 95=1 
79=1 39=1 11=1 
9=1 91=1 13=1 
98=1 87=1 22=1 
22=1 14=1 4=1 
66=1 37=1 35=1 
47=1 78=1 37=1 
59=1 18=1 5=1 
17=1 46=1 20=1 
38=1 76=1 52=1 
45=1 21=1 71=1 
64=1 19=1 5=1 
82=1 55=1 64=1 
80=1 65=1 88=1 
92=1 29=1 28=1 
46=1 48=1 58=1 
25=1 38=1 14=1 
2=1 9=1 97=1 
67=1 4=1 1=1 
18=1 68=1 59=1 
78=1 71=1 25=1 
47=1 49=1 92=1 
30=1 61=1 52=1 
62=1 33=1 52=1 
8=1 77=1 16=1 
73=1 94=1 22=1 
23=1 67=1 57=1 
37=1 54=1 76=1 
5=1 75=1 27=1 
12=1 3=1 63=1 
63=1 83=1 29=1 
28=1 20=1 5=1 
39=1 35=1 69=1 
43=1 18=1 14=1 
58=1 43=1 67=1 
2=1 64=1 34=1 
89=1 44=1 67=1 
40=1 89=1 43=1 
17=1 18=1 69=1 
82=1 8=1 91=1 
33=1 2=1 27=1 
43=1 51=1 26=1 
33=1 74=1 91=1 
83=1 6=1 46=1 
83=1 4=1 55=1 
15=1 85=1 87=1 
54=1 30=1 67=1 
25=1 73=1 15=1 
59=1 72=1 71=1 
44=1 53=1 56=1 
99=1 83=1 34=1 
71=1 79=1 81=1 
3=1 10=1 56=1 
19=1 50=1 76=1 
39=1 22=1 4=1 
88=1 24=1 20=1 
19=1 71=1 20=1 
83=1 93=1 90=1 
94=1 18=1 31=1 
73=1 11=1 4=1 
55=1 63=1 29=1 
